2 100 1212
5 3 4 6 4 3 5 4 4 6
3 3
7 7 1
4 8 9
0 35.0 35.0 0.0 0.0 0 230
2 41.0 49.0 10.0 10.0 0 204 82 0 0 0 0 0 0 0 0 1 0
3 35.0 17.0 10.0 7.0 0 202 50 0 0 1 0 0 0 0 0 0 1
4 55.0 45.0 10.0 13.0 0 197 75 1 0 0 0 0 1 0 0 0 1
5 55.0 20.0 10.0 19.0 139 169 71 0 0 0 0 0 0 0 0 0 1
6 15.0 30.0 10.0 26.0 0 199 71 0 0 0 0 0 0 0 0 0 1
7 25.0 30.0 10.0 3.0 89 119 85 0 0 0 0 0 0 0 1 0 0
8 20.0 50.0 10.0 5.0 0 198 72 0 1 0 0 0 0 0 0 0 0
9 10.0 43.0 10.0 9.0 85 115 13 1 1 0 0 0 1 1 0 0 0
10 55.0 60.0 10.0 16.0 87 117 82 0 0 0 0 0 0 0 1 0 0
11 30.0 60.0 10.0 16.0 114 144 56 1 0 0 0 1 0 0 0 0 0
12 20.0 65.0 10.0 12.0 57 87 71 0 0 1 0 0 0 0 0 0 0
13 50.0 35.0 10.0 19.0 0 205 61 0 0 0 0 0 1 0 0 1 0
14 30.0 25.0 10.0 23.0 149 179 56 0 1 0 0 0 0 0 1 0 0
15 15.0 10.0 10.0 20.0 32 62 43 0 0 0 0 1 0 0 0 1 0
16 30.0 5.0 10.0 8.0 51 81 46 0 1 0 0 0 0 0 0 0 0
17 10.0 20.0 10.0 19.0 65 95 33 0 0 0 1 0 0 0 0 0 0
18 5.0 30.0 10.0 2.0 147 177 79 0 0 1 0 1 0 1 0 0 0
19 20.0 40.0 10.0 12.0 77 107 51 0 0 0 0 1 1 0 0 1 0
20 15.0 60.0 10.0 17.0 66 96 36 0 0 0 0 0 0 0 0 0 1
21 45.0 65.0 10.0 9.0 116 146 84 0 1 0 0 0 1 0 0 0 0
22 45.0 20.0 10.0 11.0 0 201 70 0 0 0 1 0 0 1 0 0 0
23 45.0 10.0 10.0 18.0 87 117 97 0 0 0 0 0 1 0 0 0 0
24 55.0 5.0 10.0 29.0 58 88 49 0 0 0 0 0 0 0 0 1 0
25 65.0 35.0 10.0 3.0 143 173 69 1 0 0 0 0 0 0 0 0 1
26 65.0 20.0 10.0 6.0 156 186 23 0 1 1 0 0 0 0 1 0 0
27 45.0 30.0 10.0 17.0 0 208 12 0 0 1 0 0 0 0 0 0 0
28 35.0 40.0 10.0 16.0 27 57 85 0 1 0 0 0 1 0 0 0 0
29 41.0 37.0 10.0 16.0 29 59 53 0 0 0 0 0 0 1 0 1 0
30 64.0 42.0 10.0 9.0 53 83 2 0 0 0 0 0 1 0 0 0 0
31 40.0 60.0 10.0 21.0 61 91 79 1 0 0 0 1 0 1 1 0 0
32 31.0 52.0 10.0 27.0 0 202 37 0 0 0 1 0 0 0 1 0 0
33 35.0 69.0 10.0 23.0 131 161 22 0 0 1 0 1 0 0 0 0 0
34 53.0 52.0 10.0 11.0 27 57 91 0 0 0 0 1 0 0 1 1 0
35 65.0 55.0 10.0 14.0 0 183 83 0 0 0 0 0 0 0 0 0 1
36 63.0 65.0 10.0 8.0 133 163 37 0 0 0 0 1 0 0 0 0 0
37 2.0 60.0 10.0 5.0 41 71 42 0 0 0 0 0 0 0 0 1 0
38 20.0 20.0 10.0 8.0 0 198 13 1 0 1 1 1 0 0 1 1 0
39 5.0 5.0 10.0 16.0 73 103 45 0 0 0 1 0 0 1 0 0 0
40 60.0 12.0 10.0 31.0 34 64 55 1 1 0 0 1 0 1 0 0 1
41 40.0 25.0 10.0 9.0 75 105 64 1 1 0 0 1 0 0 0 1 0
42 42.0 7.0 10.0 5.0 87 117 38 1 0 0 0 0 0 0 1 1 0
43 24.0 12.0 10.0 5.0 25 55 17 1 0 0 1 0 0 0 1 0 0
44 23.0 3.0 10.0 7.0 122 152 79 0 0 0 0 0 0 0 0 0 1
45 11.0 14.0 10.0 18.0 59 89 70 1 0 0 0 1 0 0 0 1 0
46 6.0 38.0 10.0 16.0 29 59 82 0 0 0 0 0 1 0 0 0 0
47 2.0 48.0 10.0 1.0 107 137 86 1 0 1 1 0 0 0 0 0 0
48 8.0 56.0 10.0 27.0 41 71 6 0 0 0 0 1 1 0 0 0 0
49 13.0 52.0 10.0 36.0 0 192 34 0 0 0 1 0 0 0 0 0 0
50 6.0 68.0 10.0 30.0 98 128 63 1 0 0 1 0 0 0 0 0 1
51 47.0 47.0 10.0 13.0 0 203 32 0 0 0 1 0 0 0 1 1 0
52 49.0 58.0 10.0 10.0 78 108 28 0 0 1 0 0 0 1 0 1 0
53 27.0 43.0 10.0 9.0 0 208 71 0 0 0 0 1 0 0 1 0 1
54 37.0 31.0 10.0 14.0 85 115 43 1 0 0 1 0 0 0 0 0 0
55 57.0 29.0 10.0 18.0 130 160 88 1 0 0 1 1 0 1 0 0 0
56 63.0 23.0 10.0 2.0 126 156 20 0 0 1 0 0 0 0 0 0 0
57 53.0 12.0 10.0 6.0 120 150 73 0 0 0 0 0 1 0 0 0 0
58 32.0 12.0 10.0 7.0 91 121 9 0 0 0 0 1 1 0 0 0 0
59 36.0 26.0 10.0 18.0 180 210 44 0 0 0 0 0 0 0 0 0 1
60 21.0 24.0 10.0 28.0 0 202 94 0 0 0 0 0 1 0 0 0 0
61 17.0 34.0 10.0 3.0 152 182 84 0 0 0 0 0 1 0 0 0 0
62 12.0 24.0 10.0 13.0 66 96 71 0 0 0 0 0 1 0 0 0 0
63 24.0 58.0 10.0 19.0 48 78 1 0 1 0 1 1 0 0 0 0 1
64 27.0 69.0 10.0 10.0 34 64 96 1 0 1 0 1 0 1 1 0 1
65 15.0 77.0 10.0 9.0 63 93 39 0 1 0 1 0 0 1 0 0 0
66 62.0 77.0 10.0 20.0 49 79 97 0 0 0 0 1 0 1 0 0 0
67 49.0 73.0 10.0 25.0 117 147 37 0 0 0 0 0 0 0 0 0 1
68 67.0 5.0 10.0 25.0 73 103 24 0 0 0 0 0 0 0 0 1 0
69 56.0 39.0 10.0 36.0 132 162 89 0 0 1 0 0 0 0 1 0 0
70 37.0 47.0 10.0 6.0 40 70 40 1 0 0 0 0 0 1 0 1 0
71 37.0 56.0 10.0 5.0 168 198 49 0 0 0 0 1 0 0 0 0 1
72 57.0 68.0 10.0 15.0 67 97 87 0 0 1 0 0 0 0 0 0 0
73 47.0 16.0 10.0 25.0 0 197 66 1 0 0 1 0 1 1 0 0 1
74 44.0 17.0 10.0 9.0 68 98 50 0 0 0 0 0 0 0 1 0 0
75 46.0 13.0 10.0 8.0 139 169 52 0 1 0 0 1 0 0 0 0 1
76 49.0 11.0 10.0 18.0 0 192 95 0 0 0 0 0 1 0 0 0 0
77 49.0 42.0 10.0 13.0 63 93 96 0 0 0 0 1 0 0 0 0 0
78 53.0 43.0 10.0 14.0 169 199 66 1 0 0 1 0 0 1 0 0 1
79 61.0 52.0 10.0 3.0 86 116 27 1 1 0 0 0 0 0 0 0 0
80 57.0 48.0 10.0 23.0 82 112 2 0 1 1 1 0 0 0 0 0 1
81 56.0 37.0 10.0 6.0 168 198 88 0 1 0 0 0 0 0 0 1 0
82 55.0 54.0 10.0 26.0 84 114 48 0 0 0 0 0 1 0 0 0 0
83 15.0 47.0 10.0 16.0 0 196 9 0 0 1 0 0 0 0 0 0 0
84 14.0 37.0 10.0 11.0 0 198 82 1 0 1 0 0 1 1 0 0 0
85 11.0 31.0 10.0 7.0 91 121 51 0 0 0 0 1 1 0 0 0 0
86 16.0 22.0 10.0 41.0 0 196 86 0 0 1 0 1 0 1 0 0 1
87 4.0 18.0 10.0 35.0 84 114 82 0 1 0 0 0 0 0 1 0 0
88 28.0 18.0 10.0 26.0 83 113 17 0 0 0 0 1 1 0 0 0 1
89 26.0 52.0 10.0 9.0 64 94 29 0 0 0 0 0 0 0 1 1 0
90 26.0 35.0 10.0 15.0 166 196 50 0 0 0 0 0 1 0 0 0 0
91 31.0 67.0 10.0 3.0 85 115 24 0 0 0 0 0 1 0 0 0 0
92 15.0 19.0 10.0 1.0 0 194 62 1 0 0 1 0 0 0 1 1 0
93 22.0 22.0 10.0 2.0 18 48 35 0 0 0 0 1 1 0 0 0 0
94 18.0 24.0 10.0 22.0 169 199 36 0 0 1 0 0 0 0 0 0 0
95 26.0 27.0 10.0 27.0 0 207 66 1 1 0 1 0 0 1 0 0 0
96 25.0 24.0 10.0 20.0 0 205 47 0 0 0 0 0 0 0 1 0 1
97 22.0 27.0 10.0 11.0 0 204 26 0 0 0 0 0 0 0 0 1 1
98 25.0 21.0 10.0 12.0 123 153 72 0 0 1 0 0 0 0 0 0 1
99 19.0 21.0 10.0 10.0 0 198 34 1 1 0 0 0 0 0 0 1 0
100 20.0 26.0 10.0 9.0 73 103 30 1 1 0 0 0 0 0 0 0 0
101 18.0 18.0 10.0 17.0 165 195 64 0 0 0 0 0 0 1 0 0 0